c " random instance " 
p edges 200 2122
e 1 22
e 1 30
e 1 71
e 1 94
e 1 113
e 1 116
e 1 123
e 1 132
e 1 134
e 1 142
e 1 150
e 1 155
e 1 172
e 1 183
e 1 190
e 2 12
e 2 17
e 2 33
e 2 55
e 2 59
e 2 60
e 2 62
e 2 88
e 2 100
e 2 104
e 2 108
e 2 137
e 2 140
e 2 156
e 2 161
e 2 163
e 2 166
e 2 187
e 2 191
e 2 193
e 3 12
e 3 17
e 3 34
e 3 43
e 3 56
e 3 62
e 3 69
e 3 74
e 3 81
e 3 89
e 3 123
e 3 127
e 3 136
e 3 144
e 3 157
e 3 158
e 3 163
e 3 173
e 3 188
e 3 195
e 4 24
e 4 37
e 4 58
e 4 67
e 4 73
e 4 76
e 4 83
e 4 89
e 4 90
e 4 104
e 4 111
e 4 119
e 4 127
e 4 143
e 4 158
e 4 163
e 4 179
e 4 180
e 4 192
e 4 197
e 5 11
e 5 14
e 5 17
e 5 22
e 5 38
e 5 43
e 5 47
e 5 54
e 5 66
e 5 74
e 5 77
e 5 93
e 5 97
e 5 120
e 5 123
e 5 125
e 5 126
e 5 144
e 5 150
e 5 166
e 5 172
e 5 179
e 5 198
e 6 16
e 6 21
e 6 50
e 6 54
e 6 57
e 6 58
e 6 67
e 6 73
e 6 90
e 6 99
e 6 100
e 6 109
e 6 134
e 6 136
e 6 141
e 6 154
e 6 163
e 6 165
e 6 177
e 6 182
e 6 195
e 6 197
e 7 16
e 7 22
e 7 30
e 7 42
e 7 48
e 7 55
e 7 57
e 7 81
e 7 91
e 7 100
e 7 112
e 7 114
e 7 116
e 7 128
e 7 130
e 7 136
e 7 153
e 7 189
e 7 194
e 8 9
e 8 16
e 8 21
e 8 24
e 8 54
e 8 66
e 8 67
e 8 71
e 8 85
e 8 91
e 8 94
e 8 114
e 8 116
e 8 117
e 8 118
e 8 131
e 8 136
e 8 142
e 8 160
e 8 164
e 8 166
e 8 169
e 8 175
e 8 176
e 8 192
e 8 194
e 8 195
e 8 197
e 9 16
e 9 20
e 9 50
e 9 51
e 9 73
e 9 77
e 9 81
e 9 100
e 9 105
e 9 134
e 9 137
e 9 141
e 9 160
e 9 166
e 9 169
e 9 193
e 10 24
e 10 37
e 10 55
e 10 56
e 10 62
e 10 77
e 10 78
e 10 80
e 10 81
e 10 101
e 10 104
e 10 122
e 10 124
e 10 134
e 10 143
e 10 148
e 10 175
e 10 179
e 10 187
e 10 190
e 10 200
e 11 17
e 11 20
e 11 21
e 11 32
e 11 33
e 11 43
e 11 64
e 11 65
e 11 87
e 11 93
e 11 111
e 11 125
e 11 131
e 11 136
e 11 144
e 11 164
e 11 171
e 11 172
e 11 175
e 11 199
e 12 28
e 12 37
e 12 50
e 12 56
e 12 68
e 12 69
e 12 70
e 12 110
e 12 128
e 12 134
e 12 136
e 12 146
e 12 169
e 12 190
e 12 192
e 12 193
e 13 16
e 13 24
e 13 47
e 13 52
e 13 56
e 13 91
e 13 100
e 13 103
e 13 131
e 13 135
e 13 140
e 13 155
e 13 156
e 13 159
e 13 167
e 13 170
e 13 182
e 14 16
e 14 23
e 14 28
e 14 39
e 14 62
e 14 63
e 14 78
e 14 86
e 14 96
e 14 103
e 14 106
e 14 123
e 14 125
e 14 132
e 14 145
e 14 160
e 14 161
e 14 164
e 14 173
e 14 188
e 15 30
e 15 45
e 15 47
e 15 78
e 15 92
e 15 118
e 15 134
e 15 141
e 15 162
e 15 163
e 15 178
e 15 189
e 15 193
e 16 36
e 16 41
e 16 46
e 16 51
e 16 54
e 16 55
e 16 79
e 16 84
e 16 86
e 16 91
e 16 94
e 16 99
e 16 108
e 16 127
e 16 136
e 16 137
e 16 150
e 16 163
e 16 172
e 16 184
e 16 198
e 17 18
e 17 23
e 17 43
e 17 46
e 17 50
e 17 53
e 17 58
e 17 66
e 17 78
e 17 114
e 17 125
e 17 128
e 17 134
e 17 136
e 17 143
e 17 154
e 17 176
e 17 190
e 18 24
e 18 31
e 18 33
e 18 38
e 18 45
e 18 47
e 18 64
e 18 66
e 18 67
e 18 68
e 18 86
e 18 97
e 18 98
e 18 103
e 18 106
e 18 116
e 18 122
e 18 128
e 18 139
e 18 149
e 18 152
e 18 166
e 18 174
e 18 179
e 18 189
e 18 198
e 18 199
e 19 29
e 19 42
e 19 47
e 19 52
e 19 53
e 19 71
e 19 81
e 19 83
e 19 84
e 19 101
e 19 107
e 19 108
e 19 112
e 19 118
e 19 119
e 19 147
e 19 154
e 19 157
e 19 163
e 19 191
e 20 22
e 20 30
e 20 31
e 20 32
e 20 37
e 20 43
e 20 49
e 20 52
e 20 59
e 20 64
e 20 69
e 20 75
e 20 93
e 20 100
e 20 128
e 20 134
e 20 137
e 20 138
e 20 141
e 20 144
e 20 150
e 20 153
e 20 158
e 20 198
e 21 51
e 21 52
e 21 55
e 21 72
e 21 81
e 21 89
e 21 143
e 21 152
e 21 153
e 21 159
e 21 170
e 21 172
e 22 25
e 22 30
e 22 34
e 22 48
e 22 52
e 22 66
e 22 69
e 22 82
e 22 95
e 22 100
e 22 105
e 22 111
e 22 131
e 22 135
e 22 145
e 22 155
e 22 158
e 22 161
e 22 165
e 22 193
e 22 195
e 22 196
e 23 37
e 23 64
e 23 74
e 23 82
e 23 88
e 23 96
e 23 106
e 23 113
e 23 117
e 23 121
e 23 150
e 23 156
e 23 165
e 23 174
e 23 178
e 23 179
e 23 184
e 23 195
e 24 27
e 24 33
e 24 45
e 24 49
e 24 54
e 24 60
e 24 64
e 24 85
e 24 88
e 24 91
e 24 111
e 24 123
e 24 125
e 24 126
e 24 127
e 24 131
e 24 139
e 24 147
e 24 153
e 24 163
e 24 165
e 24 177
e 24 189
e 25 60
e 25 62
e 25 70
e 25 78
e 25 96
e 25 99
e 25 106
e 25 115
e 25 131
e 25 133
e 25 135
e 25 137
e 25 138
e 25 142
e 25 145
e 25 151
e 25 162
e 25 168
e 25 176
e 25 184
e 25 186
e 25 200
e 26 27
e 26 35
e 26 57
e 26 68
e 26 70
e 26 77
e 26 81
e 26 90
e 26 106
e 26 114
e 26 123
e 26 124
e 26 145
e 26 146
e 26 167
e 26 179
e 26 180
e 26 183
e 26 191
e 26 192
e 27 37
e 27 49
e 27 59
e 27 69
e 27 88
e 27 116
e 27 117
e 27 139
e 27 146
e 27 151
e 27 157
e 27 158
e 27 159
e 27 168
e 27 173
e 27 175
e 27 176
e 27 180
e 27 193
e 27 194
e 28 35
e 28 43
e 28 99
e 28 112
e 28 119
e 28 120
e 28 133
e 28 135
e 28 137
e 28 147
e 28 157
e 28 164
e 28 166
e 28 169
e 28 174
e 28 180
e 28 182
e 28 187
e 28 196
e 29 33
e 29 36
e 29 42
e 29 50
e 29 53
e 29 59
e 29 72
e 29 76
e 29 85
e 29 104
e 29 107
e 29 114
e 29 115
e 29 116
e 29 121
e 29 128
e 29 129
e 29 132
e 29 138
e 29 144
e 29 162
e 29 178
e 29 187
e 29 189
e 29 192
e 30 42
e 30 66
e 30 92
e 30 108
e 30 123
e 30 125
e 30 137
e 30 142
e 30 143
e 30 148
e 30 163
e 30 185
e 30 187
e 30 192
e 30 193
e 31 54
e 31 57
e 31 63
e 31 67
e 31 89
e 31 93
e 31 96
e 31 117
e 31 123
e 31 179
e 31 181
e 31 188
e 31 194
e 31 198
e 31 200
e 32 35
e 32 40
e 32 64
e 32 75
e 32 81
e 32 92
e 32 94
e 32 95
e 32 102
e 32 113
e 32 125
e 32 131
e 32 135
e 32 168
e 32 169
e 32 176
e 32 179
e 32 196
e 33 34
e 33 61
e 33 97
e 33 115
e 33 116
e 33 117
e 33 119
e 33 142
e 33 150
e 33 159
e 33 164
e 33 165
e 33 168
e 33 174
e 33 194
e 34 44
e 34 49
e 34 67
e 34 72
e 34 73
e 34 80
e 34 100
e 34 107
e 34 112
e 34 128
e 34 132
e 34 141
e 34 143
e 34 163
e 34 164
e 34 167
e 34 190
e 35 43
e 35 45
e 35 51
e 35 55
e 35 73
e 35 81
e 35 87
e 35 90
e 35 108
e 35 111
e 35 120
e 35 126
e 35 129
e 35 139
e 35 141
e 35 172
e 35 195
e 36 41
e 36 42
e 36 50
e 36 51
e 36 52
e 36 53
e 36 71
e 36 74
e 36 76
e 36 80
e 36 91
e 36 102
e 36 108
e 36 123
e 36 125
e 36 136
e 36 141
e 36 142
e 36 143
e 36 145
e 36 146
e 36 157
e 36 175
e 36 189
e 36 192
e 37 42
e 37 46
e 37 49
e 37 52
e 37 73
e 37 74
e 37 84
e 37 85
e 37 89
e 37 110
e 37 116
e 37 118
e 37 121
e 37 137
e 37 145
e 37 150
e 37 155
e 37 165
e 37 171
e 37 174
e 37 184
e 37 196
e 37 197
e 37 200
e 38 51
e 38 58
e 38 67
e 38 75
e 38 80
e 38 85
e 38 87
e 38 97
e 38 98
e 38 99
e 38 106
e 38 108
e 38 128
e 38 133
e 38 136
e 38 142
e 38 149
e 38 167
e 38 175
e 38 184
e 38 187
e 38 191
e 38 195
e 38 199
e 39 45
e 39 85
e 39 90
e 39 92
e 39 99
e 39 144
e 39 152
e 39 153
e 39 156
e 39 169
e 39 179
e 39 181
e 39 183
e 39 186
e 39 188
e 39 192
e 39 193
e 40 47
e 40 52
e 40 55
e 40 62
e 40 65
e 40 69
e 40 73
e 40 76
e 40 120
e 40 127
e 40 177
e 40 189
e 40 196
e 40 198
e 41 49
e 41 73
e 41 99
e 41 106
e 41 109
e 41 112
e 41 120
e 41 126
e 41 132
e 41 137
e 41 138
e 41 139
e 41 149
e 41 175
e 41 194
e 42 50
e 42 53
e 42 74
e 42 87
e 42 94
e 42 95
e 42 120
e 42 147
e 42 153
e 42 163
e 42 169
e 42 174
e 42 180
e 43 48
e 43 60
e 43 75
e 43 86
e 43 115
e 43 122
e 43 123
e 43 129
e 43 132
e 43 136
e 43 142
e 43 151
e 43 156
e 43 167
e 43 177
e 44 46
e 44 47
e 44 49
e 44 56
e 44 59
e 44 66
e 44 67
e 44 72
e 44 73
e 44 77
e 44 78
e 44 85
e 44 102
e 44 116
e 44 124
e 44 131
e 44 150
e 44 151
e 44 165
e 44 171
e 44 182
e 44 190
e 44 191
e 44 196
e 45 55
e 45 77
e 45 92
e 45 100
e 45 104
e 45 121
e 45 133
e 45 163
e 45 166
e 45 181
e 45 187
e 45 189
e 45 191
e 46 47
e 46 68
e 46 69
e 46 70
e 46 79
e 46 90
e 46 97
e 46 99
e 46 100
e 46 102
e 46 103
e 46 105
e 46 117
e 46 129
e 46 143
e 46 150
e 46 155
e 46 162
e 46 165
e 46 168
e 46 197
e 46 198
e 46 199
e 47 55
e 47 56
e 47 59
e 47 66
e 47 83
e 47 84
e 47 87
e 47 118
e 47 128
e 47 130
e 47 136
e 47 140
e 47 144
e 47 146
e 47 154
e 47 170
e 47 174
e 47 180
e 47 187
e 47 191
e 48 71
e 48 72
e 48 74
e 48 77
e 48 86
e 48 90
e 48 96
e 48 124
e 48 130
e 48 155
e 48 162
e 48 168
e 48 172
e 49 55
e 49 62
e 49 95
e 49 101
e 49 118
e 49 134
e 49 138
e 49 151
e 49 167
e 49 186
e 49 190
e 50 53
e 50 56
e 50 60
e 50 69
e 50 84
e 50 89
e 50 94
e 50 105
e 50 142
e 50 146
e 50 166
e 50 183
e 50 189
e 51 67
e 51 69
e 51 83
e 51 89
e 51 96
e 51 112
e 51 116
e 51 117
e 51 132
e 51 136
e 51 159
e 51 162
e 51 164
e 51 167
e 51 177
e 51 195
e 51 197
e 51 200
e 52 53
e 52 73
e 52 76
e 52 78
e 52 88
e 52 90
e 52 91
e 52 99
e 52 100
e 52 103
e 52 114
e 52 131
e 52 138
e 52 145
e 52 146
e 52 169
e 52 183
e 52 198
e 53 59
e 53 60
e 53 62
e 53 69
e 53 79
e 53 82
e 53 84
e 53 89
e 53 90
e 53 103
e 53 112
e 53 119
e 53 121
e 53 125
e 53 126
e 53 141
e 53 144
e 53 150
e 53 173
e 53 181
e 53 192
e 53 197
e 54 65
e 54 69
e 54 102
e 54 112
e 54 122
e 54 144
e 54 148
e 54 158
e 54 177
e 54 178
e 54 182
e 54 187
e 55 62
e 55 83
e 55 100
e 55 110
e 55 111
e 55 115
e 55 130
e 55 134
e 55 135
e 55 143
e 55 158
e 55 160
e 55 164
e 55 166
e 55 176
e 55 180
e 55 192
e 55 199
e 56 59
e 56 82
e 56 86
e 56 95
e 56 98
e 56 118
e 56 119
e 56 122
e 56 123
e 56 127
e 56 128
e 56 129
e 56 139
e 56 151
e 56 154
e 56 159
e 56 160
e 56 167
e 56 184
e 56 190
e 56 197
e 57 59
e 57 63
e 57 89
e 57 90
e 57 93
e 57 104
e 57 106
e 57 135
e 57 150
e 57 155
e 57 157
e 57 162
e 57 169
e 57 179
e 57 184
e 57 185
e 57 190
e 57 199
e 58 61
e 58 97
e 58 99
e 58 100
e 58 103
e 58 105
e 58 116
e 58 126
e 58 133
e 58 157
e 58 159
e 58 161
e 58 169
e 58 176
e 58 183
e 58 184
e 58 192
e 58 198
e 58 200
e 59 73
e 59 76
e 59 84
e 59 86
e 59 96
e 59 98
e 59 100
e 59 115
e 59 120
e 59 132
e 59 143
e 59 145
e 59 146
e 59 147
e 59 148
e 59 166
e 59 179
e 59 189
e 60 77
e 60 79
e 60 88
e 60 130
e 60 151
e 60 163
e 60 178
e 60 187
e 60 195
e 60 196
e 61 92
e 61 127
e 61 135
e 61 143
e 61 147
e 61 148
e 61 149
e 61 164
e 61 165
e 61 166
e 61 185
e 62 73
e 62 96
e 62 118
e 62 131
e 62 137
e 62 142
e 62 143
e 62 171
e 62 188
e 63 78
e 63 101
e 63 105
e 63 114
e 63 116
e 63 124
e 63 131
e 63 136
e 63 147
e 63 155
e 63 163
e 63 165
e 63 186
e 63 187
e 63 194
e 63 197
e 64 67
e 64 73
e 64 75
e 64 80
e 64 87
e 64 89
e 64 111
e 64 114
e 64 166
e 64 171
e 64 191
e 65 75
e 65 80
e 65 102
e 65 110
e 65 113
e 65 120
e 65 123
e 65 136
e 65 139
e 65 145
e 65 156
e 65 159
e 65 173
e 65 182
e 65 189
e 65 197
e 65 199
e 66 68
e 66 71
e 66 106
e 66 114
e 66 119
e 66 123
e 66 160
e 66 178
e 66 179
e 66 184
e 66 185
e 66 190
e 66 195
e 67 70
e 67 103
e 67 109
e 67 122
e 67 123
e 67 126
e 67 131
e 67 148
e 67 158
e 67 162
e 67 167
e 67 172
e 67 173
e 67 176
e 67 188
e 67 190
e 67 199
e 68 95
e 68 96
e 68 115
e 68 131
e 68 140
e 68 154
e 68 157
e 68 158
e 68 171
e 68 172
e 68 186
e 68 190
e 69 87
e 69 95
e 69 100
e 69 119
e 69 130
e 69 131
e 69 139
e 69 160
e 69 169
e 70 74
e 70 77
e 70 139
e 70 145
e 70 158
e 70 160
e 70 169
e 70 180
e 70 196
e 71 91
e 71 101
e 71 104
e 71 115
e 71 157
e 71 159
e 71 195
e 72 92
e 72 93
e 72 97
e 72 98
e 72 101
e 72 110
e 72 126
e 72 130
e 72 143
e 72 152
e 72 169
e 72 170
e 73 78
e 73 84
e 73 87
e 73 90
e 73 109
e 73 114
e 73 120
e 73 125
e 73 128
e 73 132
e 73 134
e 73 148
e 73 154
e 73 161
e 73 171
e 73 195
e 73 199
e 74 75
e 74 77
e 74 90
e 74 103
e 74 115
e 74 132
e 74 140
e 74 163
e 74 175
e 74 177
e 74 183
e 75 101
e 75 116
e 75 136
e 75 141
e 75 157
e 75 180
e 75 181
e 75 182
e 75 183
e 75 189
e 75 200
e 76 111
e 76 126
e 76 130
e 76 146
e 76 149
e 76 156
e 76 158
e 76 161
e 76 184
e 76 189
e 76 197
e 77 117
e 77 118
e 77 123
e 77 148
e 77 159
e 77 177
e 77 179
e 77 198
e 78 89
e 78 93
e 78 96
e 78 109
e 78 115
e 78 127
e 78 145
e 78 150
e 78 152
e 78 186
e 78 192
e 78 194
e 78 196
e 78 197
e 79 84
e 79 90
e 79 119
e 79 132
e 79 156
e 79 161
e 79 165
e 79 169
e 79 172
e 79 178
e 79 188
e 80 83
e 80 85
e 80 87
e 80 88
e 80 102
e 80 108
e 80 113
e 80 114
e 80 115
e 80 116
e 80 121
e 80 133
e 80 146
e 80 148
e 80 160
e 80 176
e 80 184
e 80 188
e 80 193
e 81 99
e 81 103
e 81 160
e 81 169
e 81 171
e 81 178
e 81 179
e 81 180
e 81 181
e 82 91
e 82 97
e 82 116
e 82 122
e 82 145
e 82 150
e 82 159
e 82 177
e 82 188
e 82 189
e 83 88
e 83 89
e 83 93
e 83 125
e 83 130
e 83 136
e 83 142
e 83 143
e 83 163
e 83 172
e 83 176
e 83 180
e 84 114
e 84 116
e 84 117
e 84 124
e 84 143
e 84 162
e 84 166
e 84 168
e 84 179
e 85 104
e 85 112
e 85 120
e 85 128
e 85 131
e 85 136
e 85 155
e 85 176
e 86 89
e 86 91
e 86 102
e 86 121
e 86 125
e 86 131
e 86 138
e 86 145
e 86 158
e 86 163
e 86 169
e 86 174
e 86 177
e 86 193
e 86 194
e 87 99
e 87 102
e 87 112
e 87 114
e 87 115
e 87 135
e 87 137
e 87 142
e 87 143
e 87 149
e 87 150
e 87 151
e 87 156
e 87 158
e 87 164
e 87 181
e 87 185
e 87 194
e 87 200
e 88 105
e 88 106
e 88 148
e 88 152
e 88 157
e 88 163
e 88 170
e 88 171
e 88 185
e 88 194
e 88 199
e 89 101
e 89 104
e 89 129
e 89 141
e 89 144
e 89 152
e 89 158
e 90 92
e 90 94
e 90 96
e 90 107
e 90 112
e 90 132
e 90 134
e 90 139
e 90 152
e 90 185
e 90 193
e 91 102
e 91 106
e 91 124
e 91 128
e 91 139
e 91 151
e 91 182
e 91 189
e 91 191
e 92 106
e 92 109
e 92 111
e 92 136
e 92 148
e 92 149
e 92 160
e 92 163
e 92 165
e 92 176
e 92 191
e 92 195
e 92 199
e 93 102
e 93 108
e 93 115
e 93 116
e 93 121
e 93 134
e 93 136
e 93 147
e 93 170
e 93 189
e 94 95
e 94 103
e 94 109
e 94 115
e 94 116
e 94 135
e 94 148
e 94 172
e 94 173
e 94 180
e 94 184
e 94 194
e 95 126
e 95 136
e 95 140
e 95 168
e 95 184
e 96 107
e 96 112
e 96 115
e 96 155
e 96 159
e 96 172
e 96 184
e 96 189
e 96 194
e 96 196
e 97 107
e 97 116
e 97 125
e 97 129
e 97 131
e 97 136
e 97 137
e 97 144
e 97 162
e 97 176
e 97 197
e 98 99
e 98 101
e 98 108
e 98 115
e 98 125
e 98 132
e 98 137
e 98 161
e 98 177
e 98 180
e 98 189
e 99 106
e 99 108
e 99 112
e 99 114
e 99 116
e 99 128
e 99 132
e 99 135
e 99 137
e 99 138
e 99 141
e 99 150
e 99 153
e 99 159
e 99 169
e 99 172
e 99 188
e 99 195
e 99 200
e 100 110
e 100 116
e 100 130
e 100 144
e 100 152
e 100 154
e 100 179
e 100 186
e 100 189
e 100 197
e 100 200
e 101 111
e 101 112
e 101 126
e 101 127
e 101 130
e 101 135
e 101 138
e 101 193
e 102 118
e 102 124
e 102 128
e 102 137
e 102 142
e 102 152
e 102 157
e 102 160
e 102 184
e 102 191
e 102 200
e 103 108
e 103 112
e 103 116
e 103 120
e 103 121
e 103 132
e 103 147
e 103 152
e 103 167
e 103 172
e 103 173
e 103 174
e 103 185
e 104 118
e 104 125
e 104 137
e 104 151
e 104 165
e 104 180
e 105 112
e 105 154
e 105 156
e 105 185
e 106 114
e 106 119
e 106 120
e 106 124
e 106 148
e 106 150
e 106 167
e 106 176
e 106 182
e 106 186
e 106 199
e 107 123
e 107 126
e 107 148
e 107 149
e 107 161
e 107 166
e 107 181
e 107 186
e 107 189
e 108 125
e 108 161
e 108 177
e 108 189
e 109 110
e 109 132
e 109 135
e 109 142
e 109 151
e 109 152
e 109 154
e 109 161
e 109 171
e 109 177
e 109 185
e 109 193
e 109 199
e 110 114
e 110 122
e 110 124
e 110 127
e 110 131
e 110 152
e 110 154
e 110 188
e 110 191
e 110 200
e 111 134
e 111 143
e 111 145
e 111 148
e 111 150
e 111 151
e 111 153
e 111 169
e 111 185
e 111 186
e 111 198
e 112 115
e 112 138
e 112 141
e 112 143
e 112 145
e 112 175
e 112 180
e 112 182
e 112 185
e 112 188
e 112 189
e 113 123
e 113 124
e 113 147
e 113 152
e 113 153
e 113 155
e 113 156
e 113 176
e 113 183
e 113 195
e 114 115
e 114 121
e 114 140
e 114 163
e 114 170
e 114 174
e 114 181
e 114 195
e 114 198
e 115 127
e 115 135
e 115 139
e 115 155
e 115 160
e 115 165
e 115 169
e 116 125
e 116 143
e 116 145
e 116 149
e 116 151
e 116 158
e 116 160
e 116 177
e 116 198
e 117 118
e 117 121
e 117 122
e 117 131
e 117 132
e 117 135
e 117 137
e 117 146
e 117 151
e 117 165
e 117 171
e 117 194
e 118 120
e 118 127
e 118 129
e 118 150
e 118 175
e 118 186
e 118 188
e 118 197
e 119 140
e 119 146
e 119 148
e 119 161
e 119 162
e 119 165
e 119 184
e 119 190
e 119 194
e 120 131
e 120 133
e 120 135
e 120 159
e 120 176
e 121 124
e 121 126
e 121 128
e 121 130
e 121 135
e 121 139
e 121 149
e 121 156
e 121 183
e 121 188
e 121 192
e 121 199
e 122 125
e 122 131
e 122 132
e 122 139
e 122 154
e 122 157
e 122 163
e 122 167
e 122 171
e 122 177
e 122 189
e 123 126
e 123 146
e 123 147
e 123 154
e 123 165
e 123 200
e 124 130
e 124 158
e 124 164
e 124 165
e 124 166
e 124 172
e 124 173
e 124 186
e 124 187
e 124 200
e 125 133
e 125 144
e 125 161
e 125 176
e 125 199
e 125 200
e 126 138
e 126 141
e 126 159
e 126 162
e 126 164
e 126 186
e 126 187
e 127 139
e 127 141
e 127 142
e 127 145
e 127 159
e 127 171
e 127 184
e 128 129
e 128 140
e 128 154
e 128 177
e 128 179
e 128 183
e 128 187
e 129 136
e 129 139
e 129 146
e 129 152
e 129 153
e 129 175
e 129 181
e 129 185
e 129 191
e 129 200
e 130 148
e 130 155
e 130 159
e 130 167
e 131 133
e 131 136
e 131 139
e 131 152
e 131 153
e 131 172
e 131 173
e 131 188
e 131 198
e 131 199
e 132 141
e 132 147
e 132 154
e 132 160
e 132 173
e 132 174
e 132 177
e 132 178
e 132 187
e 132 190
e 133 136
e 133 140
e 133 146
e 133 148
e 133 151
e 133 157
e 133 165
e 133 168
e 133 169
e 133 176
e 133 181
e 133 183
e 133 200
e 134 158
e 134 160
e 134 171
e 134 194
e 135 148
e 135 156
e 135 164
e 135 179
e 135 181
e 135 190
e 136 150
e 136 163
e 136 168
e 136 171
e 136 177
e 136 185
e 136 192
e 136 200
e 137 154
e 137 159
e 137 181
e 137 191
e 137 195
e 138 139
e 138 147
e 138 160
e 138 163
e 138 164
e 138 182
e 138 191
e 139 141
e 139 149
e 139 168
e 139 181
e 139 186
e 140 156
e 140 157
e 140 159
e 140 181
e 140 183
e 140 191
e 140 200
e 141 161
e 141 184
e 141 186
e 142 145
e 142 146
e 142 147
e 142 150
e 142 151
e 142 156
e 142 162
e 142 178
e 142 187
e 142 190
e 142 200
e 143 156
e 143 170
e 143 174
e 143 181
e 143 192
e 144 152
e 144 155
e 144 158
e 144 163
e 144 164
e 144 166
e 144 170
e 144 179
e 144 184
e 144 193
e 145 150
e 145 161
e 145 164
e 145 186
e 145 188
e 146 169
e 146 172
e 146 177
e 146 179
e 146 186
e 147 158
e 147 159
e 147 183
e 147 184
e 147 189
e 147 198
e 148 162
e 148 174
e 149 153
e 149 158
e 149 161
e 149 163
e 149 170
e 149 173
e 149 175
e 149 189
e 149 198
e 150 167
e 150 173
e 150 192
e 150 194
e 151 154
e 151 173
e 151 183
e 151 185
e 151 187
e 151 199
e 152 155
e 152 158
e 152 162
e 152 174
e 152 180
e 152 184
e 152 191
e 152 192
e 153 155
e 153 159
e 153 172
e 153 183
e 153 184
e 153 191
e 153 200
e 154 160
e 154 161
e 154 164
e 154 170
e 154 176
e 154 189
e 154 195
e 154 197
e 155 156
e 155 160
e 155 161
e 155 172
e 155 183
e 155 194
e 155 197
e 156 164
e 156 171
e 156 183
e 157 160
e 157 162
e 157 163
e 157 164
e 157 167
e 157 200
e 158 160
e 158 165
e 158 169
e 158 171
e 158 175
e 158 177
e 158 187
e 158 194
e 159 179
e 159 189
e 159 195
e 160 174
e 160 178
e 161 168
e 161 170
e 161 183
e 161 188
e 161 189
e 161 191
e 161 200
e 162 173
e 163 164
e 163 167
e 163 171
e 163 192
e 163 197
e 163 199
e 164 190
e 165 166
e 165 170
e 165 183
e 166 181
e 166 182
e 166 192
e 166 197
e 166 198
e 167 170
e 167 173
e 167 175
e 167 187
e 167 194
e 167 198
e 168 173
e 168 184
e 168 189
e 168 192
e 168 200
e 169 179
e 169 182
e 169 184
e 170 188
e 171 172
e 171 195
e 172 176
e 172 178
e 172 180
e 172 186
e 172 193
e 172 196
e 173 186
e 173 189
e 173 193
e 174 177
e 174 184
e 174 192
e 174 193
e 174 200
e 175 183
e 176 178
e 176 179
e 176 195
e 176 198
e 177 187
e 177 196
e 177 197
e 178 199
e 179 200
e 181 184
e 182 185
e 182 191
e 182 199
e 182 200
e 183 189
e 183 191
e 184 187
e 184 192
e 184 199
e 185 197
e 185 199
e 186 188
e 186 199
e 188 191
e 188 193
e 189 192
e 190 199
e 191 196
e 191 200
e 194 196
e 194 197
